clear

units real

dimension 3

boundary p p p

atom_style full

pair_style lj/long/coul/long long long 8.0

pair_modify mix geometric

pair_modify table 0

pair_modify table/disp 0

bond_style harmonic

angle_style harmonic

dihedral_style opls

read_data PEG_water.data

special_bonds lj 0.0 0.0 0.5 coul 0.0 0.0 0.5

group water type 8 9

group PEG type 1:7

velocity all create 300.0 4928459 dist gaussian

kspace_style ewald/disp 5.0e-6

neighbor 2.0 bin

neigh_modify every 1 delay 0 check yes

fix 1 water shake 1.0e-7 100 100 b 10 a 20

thermo 50

thermo_style custom step temp press vol density pe ke evdwl ecoul epair ebond eangle edihed eimp emol elong etotal atoms

thermo_modify lost error norm no

timestep 1.0

fix 2 all nvt temp 300.0 300.0 100.0

run 10000

write_data PEG_water_out.data

