# bulk water

units           metal
boundary        p p p
atom_style      atomic

neighbor        2.0 bin
neigh_modify    every 10 delay 0 check no

read_data	water.lmp
mass 		1 16
mass		2 2

# load the deepmd plugin
plugin load libdeepmd_lmp.so

pair_style	deepmd frozen_model.pth
pair_coeff  * *	

velocity        all create 300.0 23456789

fix             1 all nvt temp 300.0 300.0 0.5
timestep        0.0005
thermo_style    custom step pe ke etotal temp press vol
thermo          100

run             1000
